unsat
(define-fun inv ((s (_ BitVec 4)) (t (_ BitVec 4))) (_ BitVec 4) (bvudiv s t))
0.01user 0.00system 0:00.02elapsed 95%CPU (0avgtext+0avgdata 25704maxresident)k
0inputs+8outputs (0major+1111minor)pagefaults 0swaps
